nK = 2760;
nT = 8;
nI = 21;
L = 29;
TT = 564;
np = 1;
nc = 3;
b = [53, 48, 29, 57, 32, 42, 22, 29, 55, 39, 46, 56, 68, 67, 32, 59, 39, 31, 49, 59, 33];
d = [95, 139, 71, 105, 91, 70, 72, 44, 132, 59, 88, 138, 104, 126, 62, 135, 113, 148, 125, 125, 102];
m = [2.2, 1.6, 2.5, 2.3, 1.6, 1, 1.8, 2.4, 1.9, 2.3, 1.1, 1.5, 2.5, 2.3, 1, 1.7, 1.4, 2.1, 1.6, 1.9, 1.1];
pt = [0.23, 0.2, 0.25, 0.22, 0.22, 0.22, 0.24, 0.28];
st = [12.42, 12, 13.5, 11.88, 11.88, 10.78, 10.08, 13.72];
arc = {<1, 0, 1, 1, 0, 0, 0, [1, 1, 1, 1, 1, 1, 1, 1]>, <2, 1, 2, 1, 0, 0, 0, [1, 1, 1, 1, 1, 1, 1, 1]>, <3, 2, 3, 1, 0, 0, 0, [1, 1, 1, 1, 1, 1, 1, 1]>, <4, 3, 4, 1, 0, 0, 0, [1, 1, 1, 1, 1, 1, 1, 1]>, <5, 4, 5, 1, 0, 0, 0, [1, 1, 1, 1, 1, 1, 1, 1]>, <6, 5, 6, 1, 0, 0, 0, [1, 1, 1, 1, 1, 1, 1, 1]>, <7, 6, 7, 1, 0, 0, 0, [1, 1, 1, 1, 1, 1, 1, 1]>, <8, 7, 8, 1, 0, 0, 0, [1, 1, 1, 1, 1, 1, 1, 1]>, <9, 8, 9, 1, 0, 0, 0, [1, 1, 1, 1, 1, 1, 1, 1]>, <10, 9, 10, 1, 0, 0, 0, [1, 1, 1, 1, 1, 1, 1, 1]>, <11, 10, 11, 1, 0, 0, 0, [1, 1, 1, 1, 1, 1, 1, 1]>, <12, 11, 12, 1, 0, 0, 0, [1, 1, 1, 1, 1, 1, 1, 1]>, <13, 12, 13, 1, 0, 0, 0, [1, 1, 1, 1, 1, 1, 1, 1]>, <14, 13, 14, 1, 0, 0, 0, [1, 1, 1, 1, 1, 1, 1, 1]>, <15, 14, 15, 1, 0, 0, 0, [1, 1, 1, 1, 1, 1, 1, 1]>, <16, 15, 16, 1, 0, 0, 0, [1, 1, 1, 1, 1, 1, 1, 1]>, <17, 16, 17, 1, 0, 0, 0, [1, 1, 1, 1, 1, 1, 1, 1]>, <18, 17, 18, 1, 0, 0, 0, [1, 1, 1, 1, 1, 1, 1, 1]>, <19, 18, 19, 1, 0, 0, 0, [1, 1, 1, 1, 1, 1, 1, 1]>, <20, 19, 20, 1, 0, 0, 0, [1, 1, 1, 1, 1, 1, 1, 1]>, <21, 20, 21, 1, 0, 0, 0, [1, 1, 1, 1, 1, 1, 1, 1]>, <22, 21, 22, 1, 0, 0, 0, [1, 1, 1, 1, 1, 1, 1, 1]>, <23, 22, 23, 1, 0, 0, 0, [1, 1, 1, 1, 1, 1, 1, 1]>, <24, 23, 24, 1, 0, 0, 0, [1, 1, 1, 1, 1, 1, 1, 1]>, <25, 24, 25, 1, 0, 0, 0, [1, 1, 1, 1, 1, 1, 1, 1]>, <26, 25, 26, 1, 0, 0, 0, [1, 1, 1, 1, 1, 1, 1, 1]>, <27, 26, 27, 1, 0, 0, 0, [1, 1, 1, 1, 1, 1, 1, 1]>, <28, 27, 28, 1, 0, 0, 0, [1, 1, 1, 1, 1, 1, 1, 1]>, <29, 28, 29, 1, 0, 0, 0, [1, 1, 1, 1, 1, 1, 1, 1]>, <30, 0, 14, 14, 1, 1, 0, [0, 1, 1, 1, 1, 0, 0, 0]>, <31, 1, 15, 14, 1, 1, 0, [0, 1, 1, 1, 1, 0, 0, 0]>, <32, 2, 16, 14, 1, 1, 0, [0, 1, 1, 1, 1, 0, 0, 0]>, <33, 3, 17, 14, 1, 1, 0, [0, 1, 1, 1, 1, 0, 0, 0]>, <34, 4, 18, 14, 1, 1, 0, [0, 1, 1, 1, 1, 0, 0, 0]>, <35, 5, 19, 14, 1, 1, 0, [0, 1, 1, 1, 1, 0, 0, 0]>, <36, 6, 20, 14, 1, 1, 0, [0, 1, 1, 1, 1, 0, 0, 0]>, <37, 7, 21, 14, 1, 1, 0, [0, 1, 1, 1, 1, 0, 0, 0]>, <38, 8, 22, 14, 1, 1, 0, [0, 1, 1, 1, 1, 0, 0, 0]>, <39, 9, 23, 14, 1, 1, 0, [0, 1, 1, 1, 1, 0, 0, 0]>, <40, 10, 24, 14, 1, 1, 0, [0, 1, 1, 1, 1, 0, 0, 0]>, <41, 11, 25, 14, 1, 1, 0, [0, 1, 1, 1, 1, 0, 0, 0]>, <42, 12, 26, 14, 1, 1, 0, [0, 1, 1, 1, 1, 0, 0, 0]>, <43, 13, 27, 14, 1, 1, 0, [0, 1, 1, 1, 1, 0, 0, 0]>, <44, 14, 28, 14, 1, 1, 0, [0, 1, 1, 1, 1, 0, 0, 0]>, <45, 15, 29, 14, 1, 1, 0, [0, 1, 1, 1, 1, 0, 0, 0]>, <46, 0, 14, 14, 2, 0, 1, [0, 0, 0, 0, 1, 1, 1, 1]>, <47, 1, 15, 14, 2, 0, 1, [0, 0, 0, 0, 1, 1, 1, 1]>, <48, 2, 16, 14, 2, 0, 1, [0, 0, 0, 0, 1, 1, 1, 1]>, <49, 3, 17, 14, 2, 0, 1, [0, 0, 0, 0, 1, 1, 1, 1]>, <50, 4, 18, 14, 2, 0, 1, [0, 0, 0, 0, 1, 1, 1, 1]>, <51, 5, 19, 14, 2, 0, 1, [0, 0, 0, 0, 1, 1, 1, 1]>, <52, 6, 20, 14, 2, 0, 1, [0, 0, 0, 0, 1, 1, 1, 1]>, <53, 7, 21, 14, 2, 0, 1, [0, 0, 0, 0, 1, 1, 1, 1]>, <54, 8, 22, 14, 2, 0, 1, [0, 0, 0, 0, 1, 1, 1, 1]>, <55, 9, 23, 14, 2, 0, 1, [0, 0, 0, 0, 1, 1, 1, 1]>, <56, 10, 24, 14, 2, 0, 1, [0, 0, 0, 0, 1, 1, 1, 1]>, <57, 11, 25, 14, 2, 0, 1, [0, 0, 0, 0, 1, 1, 1, 1]>, <58, 12, 26, 14, 2, 0, 1, [0, 0, 0, 0, 1, 1, 1, 1]>, <59, 13, 27, 14, 2, 0, 1, [0, 0, 0, 0, 1, 1, 1, 1]>, <60, 14, 28, 14, 2, 0, 1, [0, 0, 0, 0, 1, 1, 1, 1]>, <61, 15, 29, 14, 2, 0, 1, [0, 0, 0, 0, 1, 1, 1, 1]>, <62, 0, 14, 14, 3, 0, 0, [1, 1, 0, 0, 0, 0, 1, 1]>, <63, 1, 15, 14, 3, 0, 0, [1, 1, 0, 0, 0, 0, 1, 1]>, <64, 2, 16, 14, 3, 0, 0, [1, 1, 0, 0, 0, 0, 1, 1]>, <65, 3, 17, 14, 3, 0, 0, [1, 1, 0, 0, 0, 0, 1, 1]>, <66, 4, 18, 14, 3, 0, 0, [1, 1, 0, 0, 0, 0, 1, 1]>, <67, 5, 19, 14, 3, 0, 0, [1, 1, 0, 0, 0, 0, 1, 1]>, <68, 6, 20, 14, 3, 0, 0, [1, 1, 0, 0, 0, 0, 1, 1]>, <69, 7, 21, 14, 3, 0, 0, [1, 1, 0, 0, 0, 0, 1, 1]>, <70, 8, 22, 14, 3, 0, 0, [1, 1, 0, 0, 0, 0, 1, 1]>, <71, 9, 23, 14, 3, 0, 0, [1, 1, 0, 0, 0, 0, 1, 1]>, <72, 10, 24, 14, 3, 0, 0, [1, 1, 0, 0, 0, 0, 1, 1]>, <73, 11, 25, 14, 3, 0, 0, [1, 1, 0, 0, 0, 0, 1, 1]>, <74, 12, 26, 14, 3, 0, 0, [1, 1, 0, 0, 0, 0, 1, 1]>, <75, 13, 27, 14, 3, 0, 0, [1, 1, 0, 0, 0, 0, 1, 1]>, <76, 14, 28, 14, 3, 0, 0, [1, 1, 0, 0, 0, 0, 1, 1]>, <77, 15, 29, 14, 3, 0, 0, [1, 1, 0, 0, 0, 0, 1, 1]>, <78, 0, 17, 17, 4, 0, 0, [0, 1, 1, 1, 1, 0, 0, 0]>, <79, 1, 18, 17, 4, 0, 0, [0, 1, 1, 1, 1, 0, 0, 0]>, <80, 2, 19, 17, 4, 0, 0, [0, 1, 1, 1, 1, 0, 0, 0]>, <81, 3, 20, 17, 4, 0, 0, [0, 1, 1, 1, 1, 0, 0, 0]>, <82, 4, 21, 17, 4, 0, 0, [0, 1, 1, 1, 1, 0, 0, 0]>, <83, 5, 22, 17, 4, 0, 0, [0, 1, 1, 1, 1, 0, 0, 0]>, <84, 6, 23, 17, 4, 0, 0, [0, 1, 1, 1, 1, 0, 0, 0]>, <85, 7, 24, 17, 4, 0, 0, [0, 1, 1, 1, 1, 0, 0, 0]>, <86, 8, 25, 17, 4, 0, 0, [0, 1, 1, 1, 1, 0, 0, 0]>, <87, 9, 26, 17, 4, 0, 0, [0, 1, 1, 1, 1, 0, 0, 0]>, <88, 10, 27, 17, 4, 0, 0, [0, 1, 1, 1, 1, 0, 0, 0]>, <89, 11, 28, 17, 4, 0, 0, [0, 1, 1, 1, 1, 0, 0, 0]>, <90, 12, 29, 17, 4, 0, 0, [0, 1, 1, 1, 1, 0, 0, 0]>, <91, 0, 15, 15, 5, 0, 0, [1, 1, 1, 0, 0, 0, 0, 1]>, <92, 1, 16, 15, 5, 0, 0, [1, 1, 1, 0, 0, 0, 0, 1]>, <93, 2, 17, 15, 5, 0, 0, [1, 1, 1, 0, 0, 0, 0, 1]>, <94, 3, 18, 15, 5, 0, 0, [1, 1, 1, 0, 0, 0, 0, 1]>, <95, 4, 19, 15, 5, 0, 0, [1, 1, 1, 0, 0, 0, 0, 1]>, <96, 5, 20, 15, 5, 0, 0, [1, 1, 1, 0, 0, 0, 0, 1]>, <97, 6, 21, 15, 5, 0, 0, [1, 1, 1, 0, 0, 0, 0, 1]>, <98, 7, 22, 15, 5, 0, 0, [1, 1, 1, 0, 0, 0, 0, 1]>, <99, 8, 23, 15, 5, 0, 0, [1, 1, 1, 0, 0, 0, 0, 1]>, <100, 9, 24, 15, 5, 0, 0, [1, 1, 1, 0, 0, 0, 0, 1]>, <101, 10, 25, 15, 5, 0, 0, [1, 1, 1, 0, 0, 0, 0, 1]>, <102, 11, 26, 15, 5, 0, 0, [1, 1, 1, 0, 0, 0, 0, 1]>, <103, 12, 27, 15, 5, 0, 0, [1, 1, 1, 0, 0, 0, 0, 1]>, <104, 13, 28, 15, 5, 0, 0, [1, 1, 1, 0, 0, 0, 0, 1]>, <105, 14, 29, 15, 5, 0, 0, [1, 1, 1, 0, 0, 0, 0, 1]>, <106, 0, 17, 17, 6, 0, 1, [1, 1, 1, 1, 0, 0, 0, 0]>, <107, 1, 18, 17, 6, 0, 1, [1, 1, 1, 1, 0, 0, 0, 0]>, <108, 2, 19, 17, 6, 0, 1, [1, 1, 1, 1, 0, 0, 0, 0]>, <109, 3, 20, 17, 6, 0, 1, [1, 1, 1, 1, 0, 0, 0, 0]>, <110, 4, 21, 17, 6, 0, 1, [1, 1, 1, 1, 0, 0, 0, 0]>, <111, 5, 22, 17, 6, 0, 1, [1, 1, 1, 1, 0, 0, 0, 0]>, <112, 6, 23, 17, 6, 0, 1, [1, 1, 1, 1, 0, 0, 0, 0]>, <113, 7, 24, 17, 6, 0, 1, [1, 1, 1, 1, 0, 0, 0, 0]>, <114, 8, 25, 17, 6, 0, 1, [1, 1, 1, 1, 0, 0, 0, 0]>, <115, 9, 26, 17, 6, 0, 1, [1, 1, 1, 1, 0, 0, 0, 0]>, <116, 10, 27, 17, 6, 0, 1, [1, 1, 1, 1, 0, 0, 0, 0]>, <117, 11, 28, 17, 6, 0, 1, [1, 1, 1, 1, 0, 0, 0, 0]>, <118, 12, 29, 17, 6, 0, 1, [1, 1, 1, 1, 0, 0, 0, 0]>, <119, 0, 16, 16, 7, 0, 1, [1, 1, 0, 0, 0, 0, 1, 1]>, <120, 1, 17, 16, 7, 0, 1, [1, 1, 0, 0, 0, 0, 1, 1]>, <121, 2, 18, 16, 7, 0, 1, [1, 1, 0, 0, 0, 0, 1, 1]>, <122, 3, 19, 16, 7, 0, 1, [1, 1, 0, 0, 0, 0, 1, 1]>, <123, 4, 20, 16, 7, 0, 1, [1, 1, 0, 0, 0, 0, 1, 1]>, <124, 5, 21, 16, 7, 0, 1, [1, 1, 0, 0, 0, 0, 1, 1]>, <125, 6, 22, 16, 7, 0, 1, [1, 1, 0, 0, 0, 0, 1, 1]>, <126, 7, 23, 16, 7, 0, 1, [1, 1, 0, 0, 0, 0, 1, 1]>, <127, 8, 24, 16, 7, 0, 1, [1, 1, 0, 0, 0, 0, 1, 1]>, <128, 9, 25, 16, 7, 0, 1, [1, 1, 0, 0, 0, 0, 1, 1]>, <129, 10, 26, 16, 7, 0, 1, [1, 1, 0, 0, 0, 0, 1, 1]>, <130, 11, 27, 16, 7, 0, 1, [1, 1, 0, 0, 0, 0, 1, 1]>, <131, 12, 28, 16, 7, 0, 1, [1, 1, 0, 0, 0, 0, 1, 1]>, <132, 13, 29, 16, 7, 0, 1, [1, 1, 0, 0, 0, 0, 1, 1]>, <133, 0, 16, 16, 8, 0, 1, [0, 0, 0, 1, 1, 1, 1, 0]>, <134, 1, 17, 16, 8, 0, 1, [0, 0, 0, 1, 1, 1, 1, 0]>, <135, 2, 18, 16, 8, 0, 1, [0, 0, 0, 1, 1, 1, 1, 0]>, <136, 3, 19, 16, 8, 0, 1, [0, 0, 0, 1, 1, 1, 1, 0]>, <137, 4, 20, 16, 8, 0, 1, [0, 0, 0, 1, 1, 1, 1, 0]>, <138, 5, 21, 16, 8, 0, 1, [0, 0, 0, 1, 1, 1, 1, 0]>, <139, 6, 22, 16, 8, 0, 1, [0, 0, 0, 1, 1, 1, 1, 0]>, <140, 7, 23, 16, 8, 0, 1, [0, 0, 0, 1, 1, 1, 1, 0]>, <141, 8, 24, 16, 8, 0, 1, [0, 0, 0, 1, 1, 1, 1, 0]>, <142, 9, 25, 16, 8, 0, 1, [0, 0, 0, 1, 1, 1, 1, 0]>, <143, 10, 26, 16, 8, 0, 1, [0, 0, 0, 1, 1, 1, 1, 0]>, <144, 11, 27, 16, 8, 0, 1, [0, 0, 0, 1, 1, 1, 1, 0]>, <145, 12, 28, 16, 8, 0, 1, [0, 0, 0, 1, 1, 1, 1, 0]>, <146, 13, 29, 16, 8, 0, 1, [0, 0, 0, 1, 1, 1, 1, 0]>, <147, 0, 16, 16, 9, 0, 0, [0, 0, 0, 1, 1, 1, 1, 0]>, <148, 1, 17, 16, 9, 0, 0, [0, 0, 0, 1, 1, 1, 1, 0]>, <149, 2, 18, 16, 9, 0, 0, [0, 0, 0, 1, 1, 1, 1, 0]>, <150, 3, 19, 16, 9, 0, 0, [0, 0, 0, 1, 1, 1, 1, 0]>, <151, 4, 20, 16, 9, 0, 0, [0, 0, 0, 1, 1, 1, 1, 0]>, <152, 5, 21, 16, 9, 0, 0, [0, 0, 0, 1, 1, 1, 1, 0]>, <153, 6, 22, 16, 9, 0, 0, [0, 0, 0, 1, 1, 1, 1, 0]>, <154, 7, 23, 16, 9, 0, 0, [0, 0, 0, 1, 1, 1, 1, 0]>, <155, 8, 24, 16, 9, 0, 0, [0, 0, 0, 1, 1, 1, 1, 0]>, <156, 9, 25, 16, 9, 0, 0, [0, 0, 0, 1, 1, 1, 1, 0]>, <157, 10, 26, 16, 9, 0, 0, [0, 0, 0, 1, 1, 1, 1, 0]>, <158, 11, 27, 16, 9, 0, 0, [0, 0, 0, 1, 1, 1, 1, 0]>, <159, 12, 28, 16, 9, 0, 0, [0, 0, 0, 1, 1, 1, 1, 0]>, <160, 13, 29, 16, 9, 0, 0, [0, 0, 0, 1, 1, 1, 1, 0]>, <161, 0, 14, 14, 10, 0, 1, [0, 0, 1, 1, 1, 1, 0, 0]>, <162, 1, 15, 14, 10, 0, 1, [0, 0, 1, 1, 1, 1, 0, 0]>, <163, 2, 16, 14, 10, 0, 1, [0, 0, 1, 1, 1, 1, 0, 0]>, <164, 3, 17, 14, 10, 0, 1, [0, 0, 1, 1, 1, 1, 0, 0]>, <165, 4, 18, 14, 10, 0, 1, [0, 0, 1, 1, 1, 1, 0, 0]>, <166, 5, 19, 14, 10, 0, 1, [0, 0, 1, 1, 1, 1, 0, 0]>, <167, 6, 20, 14, 10, 0, 1, [0, 0, 1, 1, 1, 1, 0, 0]>, <168, 7, 21, 14, 10, 0, 1, [0, 0, 1, 1, 1, 1, 0, 0]>, <169, 8, 22, 14, 10, 0, 1, [0, 0, 1, 1, 1, 1, 0, 0]>, <170, 9, 23, 14, 10, 0, 1, [0, 0, 1, 1, 1, 1, 0, 0]>, <171, 10, 24, 14, 10, 0, 1, [0, 0, 1, 1, 1, 1, 0, 0]>, <172, 11, 25, 14, 10, 0, 1, [0, 0, 1, 1, 1, 1, 0, 0]>, <173, 12, 26, 14, 10, 0, 1, [0, 0, 1, 1, 1, 1, 0, 0]>, <174, 13, 27, 14, 10, 0, 1, [0, 0, 1, 1, 1, 1, 0, 0]>, <175, 14, 28, 14, 10, 0, 1, [0, 0, 1, 1, 1, 1, 0, 0]>, <176, 15, 29, 14, 10, 0, 1, [0, 0, 1, 1, 1, 1, 0, 0]>, <177, 0, 14, 14, 11, 0, 1, [1, 0, 0, 0, 0, 1, 1, 1]>, <178, 1, 15, 14, 11, 0, 1, [1, 0, 0, 0, 0, 1, 1, 1]>, <179, 2, 16, 14, 11, 0, 1, [1, 0, 0, 0, 0, 1, 1, 1]>, <180, 3, 17, 14, 11, 0, 1, [1, 0, 0, 0, 0, 1, 1, 1]>, <181, 4, 18, 14, 11, 0, 1, [1, 0, 0, 0, 0, 1, 1, 1]>, <182, 5, 19, 14, 11, 0, 1, [1, 0, 0, 0, 0, 1, 1, 1]>, <183, 6, 20, 14, 11, 0, 1, [1, 0, 0, 0, 0, 1, 1, 1]>, <184, 7, 21, 14, 11, 0, 1, [1, 0, 0, 0, 0, 1, 1, 1]>, <185, 8, 22, 14, 11, 0, 1, [1, 0, 0, 0, 0, 1, 1, 1]>, <186, 9, 23, 14, 11, 0, 1, [1, 0, 0, 0, 0, 1, 1, 1]>, <187, 10, 24, 14, 11, 0, 1, [1, 0, 0, 0, 0, 1, 1, 1]>, <188, 11, 25, 14, 11, 0, 1, [1, 0, 0, 0, 0, 1, 1, 1]>, <189, 12, 26, 14, 11, 0, 1, [1, 0, 0, 0, 0, 1, 1, 1]>, <190, 13, 27, 14, 11, 0, 1, [1, 0, 0, 0, 0, 1, 1, 1]>, <191, 14, 28, 14, 11, 0, 1, [1, 0, 0, 0, 0, 1, 1, 1]>, <192, 15, 29, 14, 11, 0, 1, [1, 0, 0, 0, 0, 1, 1, 1]>, <193, 0, 14, 14, 12, 0, 1, [1, 1, 1, 1, 0, 0, 0, 0]>, <194, 1, 15, 14, 12, 0, 1, [1, 1, 1, 1, 0, 0, 0, 0]>, <195, 2, 16, 14, 12, 0, 1, [1, 1, 1, 1, 0, 0, 0, 0]>, <196, 3, 17, 14, 12, 0, 1, [1, 1, 1, 1, 0, 0, 0, 0]>, <197, 4, 18, 14, 12, 0, 1, [1, 1, 1, 1, 0, 0, 0, 0]>, <198, 5, 19, 14, 12, 0, 1, [1, 1, 1, 1, 0, 0, 0, 0]>, <199, 6, 20, 14, 12, 0, 1, [1, 1, 1, 1, 0, 0, 0, 0]>, <200, 7, 21, 14, 12, 0, 1, [1, 1, 1, 1, 0, 0, 0, 0]>, <201, 8, 22, 14, 12, 0, 1, [1, 1, 1, 1, 0, 0, 0, 0]>, <202, 9, 23, 14, 12, 0, 1, [1, 1, 1, 1, 0, 0, 0, 0]>, <203, 10, 24, 14, 12, 0, 1, [1, 1, 1, 1, 0, 0, 0, 0]>, <204, 11, 25, 14, 12, 0, 1, [1, 1, 1, 1, 0, 0, 0, 0]>, <205, 12, 26, 14, 12, 0, 1, [1, 1, 1, 1, 0, 0, 0, 0]>, <206, 13, 27, 14, 12, 0, 1, [1, 1, 1, 1, 0, 0, 0, 0]>, <207, 14, 28, 14, 12, 0, 1, [1, 1, 1, 1, 0, 0, 0, 0]>, <208, 15, 29, 14, 12, 0, 1, [1, 1, 1, 1, 0, 0, 0, 0]>, <209, 0, 16, 16, 13, 0, 1, [1, 1, 1, 0, 0, 0, 0, 1]>, <210, 1, 17, 16, 13, 0, 1, [1, 1, 1, 0, 0, 0, 0, 1]>, <211, 2, 18, 16, 13, 0, 1, [1, 1, 1, 0, 0, 0, 0, 1]>, <212, 3, 19, 16, 13, 0, 1, [1, 1, 1, 0, 0, 0, 0, 1]>, <213, 4, 20, 16, 13, 0, 1, [1, 1, 1, 0, 0, 0, 0, 1]>, <214, 5, 21, 16, 13, 0, 1, [1, 1, 1, 0, 0, 0, 0, 1]>, <215, 6, 22, 16, 13, 0, 1, [1, 1, 1, 0, 0, 0, 0, 1]>, <216, 7, 23, 16, 13, 0, 1, [1, 1, 1, 0, 0, 0, 0, 1]>, <217, 8, 24, 16, 13, 0, 1, [1, 1, 1, 0, 0, 0, 0, 1]>, <218, 9, 25, 16, 13, 0, 1, [1, 1, 1, 0, 0, 0, 0, 1]>, <219, 10, 26, 16, 13, 0, 1, [1, 1, 1, 0, 0, 0, 0, 1]>, <220, 11, 27, 16, 13, 0, 1, [1, 1, 1, 0, 0, 0, 0, 1]>, <221, 12, 28, 16, 13, 0, 1, [1, 1, 1, 0, 0, 0, 0, 1]>, <222, 13, 29, 16, 13, 0, 1, [1, 1, 1, 0, 0, 0, 0, 1]>, <223, 0, 14, 14, 14, 0, 0, [1, 1, 1, 1, 0, 0, 0, 0]>, <224, 1, 15, 14, 14, 0, 0, [1, 1, 1, 1, 0, 0, 0, 0]>, <225, 2, 16, 14, 14, 0, 0, [1, 1, 1, 1, 0, 0, 0, 0]>, <226, 3, 17, 14, 14, 0, 0, [1, 1, 1, 1, 0, 0, 0, 0]>, <227, 4, 18, 14, 14, 0, 0, [1, 1, 1, 1, 0, 0, 0, 0]>, <228, 5, 19, 14, 14, 0, 0, [1, 1, 1, 1, 0, 0, 0, 0]>, <229, 6, 20, 14, 14, 0, 0, [1, 1, 1, 1, 0, 0, 0, 0]>, <230, 7, 21, 14, 14, 0, 0, [1, 1, 1, 1, 0, 0, 0, 0]>, <231, 8, 22, 14, 14, 0, 0, [1, 1, 1, 1, 0, 0, 0, 0]>, <232, 9, 23, 14, 14, 0, 0, [1, 1, 1, 1, 0, 0, 0, 0]>, <233, 10, 24, 14, 14, 0, 0, [1, 1, 1, 1, 0, 0, 0, 0]>, <234, 11, 25, 14, 14, 0, 0, [1, 1, 1, 1, 0, 0, 0, 0]>, <235, 12, 26, 14, 14, 0, 0, [1, 1, 1, 1, 0, 0, 0, 0]>, <236, 13, 27, 14, 14, 0, 0, [1, 1, 1, 1, 0, 0, 0, 0]>, <237, 14, 28, 14, 14, 0, 0, [1, 1, 1, 1, 0, 0, 0, 0]>, <238, 15, 29, 14, 14, 0, 0, [1, 1, 1, 1, 0, 0, 0, 0]>, <239, 0, 14, 14, 15, 1, 0, [1, 1, 1, 0, 0, 0, 0, 1]>, <240, 1, 15, 14, 15, 1, 0, [1, 1, 1, 0, 0, 0, 0, 1]>, <241, 2, 16, 14, 15, 1, 0, [1, 1, 1, 0, 0, 0, 0, 1]>, <242, 3, 17, 14, 15, 1, 0, [1, 1, 1, 0, 0, 0, 0, 1]>, <243, 4, 18, 14, 15, 1, 0, [1, 1, 1, 0, 0, 0, 0, 1]>, <244, 5, 19, 14, 15, 1, 0, [1, 1, 1, 0, 0, 0, 0, 1]>, <245, 6, 20, 14, 15, 1, 0, [1, 1, 1, 0, 0, 0, 0, 1]>, <246, 7, 21, 14, 15, 1, 0, [1, 1, 1, 0, 0, 0, 0, 1]>, <247, 8, 22, 14, 15, 1, 0, [1, 1, 1, 0, 0, 0, 0, 1]>, <248, 9, 23, 14, 15, 1, 0, [1, 1, 1, 0, 0, 0, 0, 1]>, <249, 10, 24, 14, 15, 1, 0, [1, 1, 1, 0, 0, 0, 0, 1]>, <250, 11, 25, 14, 15, 1, 0, [1, 1, 1, 0, 0, 0, 0, 1]>, <251, 12, 26, 14, 15, 1, 0, [1, 1, 1, 0, 0, 0, 0, 1]>, <252, 13, 27, 14, 15, 1, 0, [1, 1, 1, 0, 0, 0, 0, 1]>, <253, 14, 28, 14, 15, 1, 0, [1, 1, 1, 0, 0, 0, 0, 1]>, <254, 15, 29, 14, 15, 1, 0, [1, 1, 1, 0, 0, 0, 0, 1]>, <255, 0, 13, 13, 16, 1, 0, [0, 0, 0, 0, 1, 1, 1, 1]>, <256, 1, 14, 13, 16, 1, 0, [0, 0, 0, 0, 1, 1, 1, 1]>, <257, 2, 15, 13, 16, 1, 0, [0, 0, 0, 0, 1, 1, 1, 1]>, <258, 3, 16, 13, 16, 1, 0, [0, 0, 0, 0, 1, 1, 1, 1]>, <259, 4, 17, 13, 16, 1, 0, [0, 0, 0, 0, 1, 1, 1, 1]>, <260, 5, 18, 13, 16, 1, 0, [0, 0, 0, 0, 1, 1, 1, 1]>, <261, 7, 20, 13, 16, 1, 0, [0, 0, 0, 0, 1, 1, 1, 1]>, <262, 8, 21, 13, 16, 1, 0, [0, 0, 0, 0, 1, 1, 1, 1]>, <263, 9, 22, 13, 16, 1, 0, [0, 0, 0, 0, 1, 1, 1, 1]>, <264, 10, 23, 13, 16, 1, 0, [0, 0, 0, 0, 1, 1, 1, 1]>, <265, 11, 24, 13, 16, 1, 0, [0, 0, 0, 0, 1, 1, 1, 1]>, <266, 12, 25, 13, 16, 1, 0, [0, 0, 0, 0, 1, 1, 1, 1]>, <267, 13, 26, 13, 16, 1, 0, [0, 0, 0, 0, 1, 1, 1, 1]>, <268, 14, 27, 13, 16, 1, 0, [0, 0, 0, 0, 1, 1, 1, 1]>, <269, 15, 28, 13, 16, 1, 0, [0, 0, 0, 0, 1, 1, 1, 1]>, <270, 16, 29, 13, 16, 1, 0, [0, 0, 0, 0, 1, 1, 1, 1]>, <271, 0, 16, 16, 17, 0, 1, [0, 1, 1, 1, 1, 0, 0, 0]>, <272, 1, 17, 16, 17, 0, 1, [0, 1, 1, 1, 1, 0, 0, 0]>, <273, 2, 18, 16, 17, 0, 1, [0, 1, 1, 1, 1, 0, 0, 0]>, <274, 3, 19, 16, 17, 0, 1, [0, 1, 1, 1, 1, 0, 0, 0]>, <275, 4, 20, 16, 17, 0, 1, [0, 1, 1, 1, 1, 0, 0, 0]>, <276, 5, 21, 16, 17, 0, 1, [0, 1, 1, 1, 1, 0, 0, 0]>, <277, 6, 22, 16, 17, 0, 1, [0, 1, 1, 1, 1, 0, 0, 0]>, <278, 7, 23, 16, 17, 0, 1, [0, 1, 1, 1, 1, 0, 0, 0]>, <279, 8, 24, 16, 17, 0, 1, [0, 1, 1, 1, 1, 0, 0, 0]>, <280, 9, 25, 16, 17, 0, 1, [0, 1, 1, 1, 1, 0, 0, 0]>, <281, 10, 26, 16, 17, 0, 1, [0, 1, 1, 1, 1, 0, 0, 0]>, <282, 11, 27, 16, 17, 0, 1, [0, 1, 1, 1, 1, 0, 0, 0]>, <283, 12, 28, 16, 17, 0, 1, [0, 1, 1, 1, 1, 0, 0, 0]>, <284, 13, 29, 16, 17, 0, 1, [0, 1, 1, 1, 1, 0, 0, 0]>, <285, 0, 17, 17, 18, 0, 0, [0, 0, 0, 1, 1, 1, 1, 0]>, <286, 1, 18, 17, 18, 0, 0, [0, 0, 0, 1, 1, 1, 1, 0]>, <287, 2, 19, 17, 18, 0, 0, [0, 0, 0, 1, 1, 1, 1, 0]>, <288, 3, 20, 17, 18, 0, 0, [0, 0, 0, 1, 1, 1, 1, 0]>, <289, 4, 21, 17, 18, 0, 0, [0, 0, 0, 1, 1, 1, 1, 0]>, <290, 5, 22, 17, 18, 0, 0, [0, 0, 0, 1, 1, 1, 1, 0]>, <291, 6, 23, 17, 18, 0, 0, [0, 0, 0, 1, 1, 1, 1, 0]>, <292, 7, 24, 17, 18, 0, 0, [0, 0, 0, 1, 1, 1, 1, 0]>, <293, 8, 25, 17, 18, 0, 0, [0, 0, 0, 1, 1, 1, 1, 0]>, <294, 9, 26, 17, 18, 0, 0, [0, 0, 0, 1, 1, 1, 1, 0]>, <295, 10, 27, 17, 18, 0, 0, [0, 0, 0, 1, 1, 1, 1, 0]>, <296, 11, 28, 17, 18, 0, 0, [0, 0, 0, 1, 1, 1, 1, 0]>, <297, 12, 29, 17, 18, 0, 0, [0, 0, 0, 1, 1, 1, 1, 0]>, <298, 0, 15, 15, 19, 0, 0, [0, 0, 1, 1, 1, 1, 0, 0]>, <299, 1, 16, 15, 19, 0, 0, [0, 0, 1, 1, 1, 1, 0, 0]>, <300, 2, 17, 15, 19, 0, 0, [0, 0, 1, 1, 1, 1, 0, 0]>, <301, 3, 18, 15, 19, 0, 0, [0, 0, 1, 1, 1, 1, 0, 0]>, <302, 4, 19, 15, 19, 0, 0, [0, 0, 1, 1, 1, 1, 0, 0]>, <303, 5, 20, 15, 19, 0, 0, [0, 0, 1, 1, 1, 1, 0, 0]>, <304, 6, 21, 15, 19, 0, 0, [0, 0, 1, 1, 1, 1, 0, 0]>, <305, 7, 22, 15, 19, 0, 0, [0, 0, 1, 1, 1, 1, 0, 0]>, <306, 8, 23, 15, 19, 0, 0, [0, 0, 1, 1, 1, 1, 0, 0]>, <307, 9, 24, 15, 19, 0, 0, [0, 0, 1, 1, 1, 1, 0, 0]>, <308, 10, 25, 15, 19, 0, 0, [0, 0, 1, 1, 1, 1, 0, 0]>, <309, 11, 26, 15, 19, 0, 0, [0, 0, 1, 1, 1, 1, 0, 0]>, <310, 12, 27, 15, 19, 0, 0, [0, 0, 1, 1, 1, 1, 0, 0]>, <311, 13, 28, 15, 19, 0, 0, [0, 0, 1, 1, 1, 1, 0, 0]>, <312, 14, 29, 15, 19, 0, 0, [0, 0, 1, 1, 1, 1, 0, 0]>, <313, 0, 14, 14, 20, 0, 0, [1, 1, 1, 0, 0, 0, 0, 1]>, <314, 1, 15, 14, 20, 0, 0, [1, 1, 1, 0, 0, 0, 0, 1]>, <315, 2, 16, 14, 20, 0, 0, [1, 1, 1, 0, 0, 0, 0, 1]>, <316, 3, 17, 14, 20, 0, 0, [1, 1, 1, 0, 0, 0, 0, 1]>, <317, 4, 18, 14, 20, 0, 0, [1, 1, 1, 0, 0, 0, 0, 1]>, <318, 5, 19, 14, 20, 0, 0, [1, 1, 1, 0, 0, 0, 0, 1]>, <319, 6, 20, 14, 20, 0, 0, [1, 1, 1, 0, 0, 0, 0, 1]>, <320, 7, 21, 14, 20, 0, 0, [1, 1, 1, 0, 0, 0, 0, 1]>, <321, 8, 22, 14, 20, 0, 0, [1, 1, 1, 0, 0, 0, 0, 1]>, <322, 9, 23, 14, 20, 0, 0, [1, 1, 1, 0, 0, 0, 0, 1]>, <323, 10, 24, 14, 20, 0, 0, [1, 1, 1, 0, 0, 0, 0, 1]>, <324, 11, 25, 14, 20, 0, 0, [1, 1, 1, 0, 0, 0, 0, 1]>, <325, 12, 26, 14, 20, 0, 0, [1, 1, 1, 0, 0, 0, 0, 1]>, <326, 13, 27, 14, 20, 0, 0, [1, 1, 1, 0, 0, 0, 0, 1]>, <327, 14, 28, 14, 20, 0, 0, [1, 1, 1, 0, 0, 0, 0, 1]>, <328, 15, 29, 14, 20, 0, 0, [1, 1, 1, 0, 0, 0, 0, 1]>, <329, 0, 14, 14, 21, 0, 0, [0, 0, 0, 0, 1, 1, 1, 1]>, <330, 1, 15, 14, 21, 0, 0, [0, 0, 0, 0, 1, 1, 1, 1]>, <331, 2, 16, 14, 21, 0, 0, [0, 0, 0, 0, 1, 1, 1, 1]>, <332, 3, 17, 14, 21, 0, 0, [0, 0, 0, 0, 1, 1, 1, 1]>, <333, 4, 18, 14, 21, 0, 0, [0, 0, 0, 0, 1, 1, 1, 1]>, <334, 5, 19, 14, 21, 0, 0, [0, 0, 0, 0, 1, 1, 1, 1]>, <335, 6, 20, 14, 21, 0, 0, [0, 0, 0, 0, 1, 1, 1, 1]>, <336, 7, 21, 14, 21, 0, 0, [0, 0, 0, 0, 1, 1, 1, 1]>, <337, 8, 22, 14, 21, 0, 0, [0, 0, 0, 0, 1, 1, 1, 1]>, <338, 9, 23, 14, 21, 0, 0, [0, 0, 0, 0, 1, 1, 1, 1]>, <339, 10, 24, 14, 21, 0, 0, [0, 0, 0, 0, 1, 1, 1, 1]>, <340, 11, 25, 14, 21, 0, 0, [0, 0, 0, 0, 1, 1, 1, 1]>, <341, 12, 26, 14, 21, 0, 0, [0, 0, 0, 0, 1, 1, 1, 1]>, <342, 13, 27, 14, 21, 0, 0, [0, 0, 0, 0, 1, 1, 1, 1]>, <343, 14, 28, 14, 21, 0, 0, [0, 0, 0, 0, 1, 1, 1, 1]>, <344, 15, 29, 14, 21, 0, 0, [0, 0, 0, 0, 1, 1, 1, 1]>};
